NAME : amz2954.134180_131180.tour
COMMENT : Cost = 134180_131180
COMMENT : Found by LKH-AMZ [Keld Helsgaun] Sun May 11 14:18:26 2025
COMMENT : TW viol.: 0 #: 0
TYPE : TOUR
DIMENSION : 171
TOUR_SECTION
144
64
85
113
100
68
167
47
37
171
92
133
81
25
56
74
126
145
49
19
16
88
137
102
136
111
90
20
22
150
52
107
40
140
38
110
27
120
159
53
148
66
28
152
82
141
128
117
3
166
12
34
154
149
157
44
143
76
51
60
131
24
13
125
105
77
41
114
168
115
61
155
11
112
31
1
162
139
142
75
123
23
63
86
87
70
72
97
45
17
71
83
160
84
73
89
164
50
55
91
8
119
94
18
21
99
103
156
39
165
32
42
65
10
101
132
54
158
118
135
62
58
153
169
104
9
35
129
69
127
95
98
108
116
146
80
2
14
33
5
109
30
67
15
7
147
124
161
163
170
122
134
29
96
78
43
46
59
130
6
106
79
36
26
57
151
138
93
121
48
4
-1
EOF
